N = 8;
Capacity = 16;
Demand = [2, 4, 7, 9, 10, 7, 2, 2];
Distance = [|
  0, 38, 17, 34, 14, 65, 46, 47, 37
| 38, 0, 54, 7, 37, 91, 28, 24, 67
| 17, 54, 0, 49, 19, 51, 56, 59, 24
| 34, 7, 49, 0, 31, 84, 22, 20, 60
| 14, 37, 19, 31, 0, 56, 36, 39, 30
| 65, 91, 51, 84, 56, 0, 76, 82, 28
| 46, 28, 56, 22, 36, 76, 0, 6, 58
| 47, 24, 59, 20, 39, 82, 6, 0, 63
| 37, 67, 24, 60, 30, 28, 58, 63, 0
|];
